6 8 4 7 -1 7 6 10 4 6 8 4 7 -1 -1 
0 0 2 2 4 6 0 9 8 8 7 -1 3 8 -1 
0 -1 8 10 0 1 0 1 5 2 1 0 0 0 -1 
8 1 7 1 -1 7 -1 -1 6 2 8 8 6 9 -1 
5 -1 2 0 2 5 9 9 6 2 0 10 5 0 -1 
6 3 8 4 8 0 0 2 9 0 4 7 -1 0 -1 
5 7 -1 2 6 8 7 8 8 9 9 6 0 3 -1 
1 5 6 9 8 1 5 8 8 10 5 10 0 0 -1 
4 9 9 5 2 5 0 -1 8 7 2 3 3 1 -1 
10 6 7 10 8 10 10 -1 5 4 4 3 2 9 -1 
7 3 10 7 10 7 5 7 2 10 3 5 4 1 -1 
0 10 6 9 2 6 5 5 2 2 5 0 4 8 -1 
7 6 4 6 8 9 3 6 8 8 4 5 3 9 -1 
6 4 7 -1 5 9 0 3 10 1 7 -1 6 2 -1 
6 3 5 10 1 5 7 -1 9 9 4 9 0 4 -1 
